VRPTWMS/instances/mip/freight/5/N5-C_DV10-C_SV50_F12_20_No_1.lp
\ N5-C_DV10-C_SV50_F12_20

Minimize
  24.08 x_d0_c1 + 24.08 z_d0_c1 + 41.62 x_d0_c2 + 41.62 z_d0_c2 + 13.15 x_d0_c3 + 13.15 z_d0_c3 + 19.42 x_d0_c4 + 19.42 z_d0_c4 + 24.21 x_d0_c5 + 24.21 z_d0_c5 + 32.0 x_c1_c2 + 32.0 x_c2_c1 + 32.0 z_c1_c2 + 32.0 z_c2_c1 + 11.0 x_c1_c3 + 11.0 x_c3_c1 + 11.0 z_c1_c3 + 11.0 z_c3_c1 + 41.0 x_c1_c4 + 41.0 x_c4_c1 + 41.0 z_c1_c4 + 41.0 z_c4_c1 + 19.24 x_c1_c5 + 19.24 x_c5_c1 + 19.24 z_c1_c5 + 19.24 z_c5_c1 + 33.84 x_c2_c3 + 33.84 x_c3_c2 + 33.84 z_c2_c3 + 33.84 z_c3_c2 + 46.14 x_c2_c4 + 46.14 x_c4_c2 + 46.14 z_c2_c4 + 46.14 z_c4_c2 + 17.49 x_c2_c5 + 17.49 x_c5_c2 + 17.49 z_c2_c5 + 17.49 z_c5_c2 + 30.36 x_c3_c4 + 30.36 x_c4_c3 + 30.36 z_c3_c4 + 30.36 z_c4_c3 + 17.12 x_c3_c5 + 17.12 x_c5_c3 + 17.12 z_c3_c5 + 17.12 z_c5_c3 + 32.02 x_c4_c5 + 32.02 x_c5_c4 + 32.02 z_c4_c5 + 32.02 z_c5_c4 + 24.08 x_c1_dN + 24.08 z_c1_dN + 41.62 x_c2_dN + 41.62 z_c2_dN + 13.15 x_c3_dN + 13.15 z_c3_dN + 19.42 x_c4_dN + 19.42 z_c4_dN + 24.21 x_c5_dN + 24.21 z_c5_dN + 1000.0 x_d0_c1 + 1000.0 z_d0_c1 + 1000.0 x_d0_c2 + 1000.0 z_d0_c2 + 1000.0 x_d0_c3 + 1000.0 z_d0_c3 + 1000.0 x_d0_c4 + 1000.0 z_d0_c4 + 1000.0 x_d0_c5 + 1000.0 z_d0_c5
Subject To
  Successor_DV_c1: x_c1_c2 + x_c1_c3 + x_c1_c4 + x_c1_c5 + x_c1_dN = 1
  Successor_DV_c2: x_c2_c1 + x_c2_c3 + x_c2_c4 + x_c2_c5 + x_c2_dN = 1
  Successor_DV_c3: x_c3_c1 + x_c3_c2 + x_c3_c4 + x_c3_c5 + x_c3_dN = 1
  Successor_DV_c4: x_c4_c1 + x_c4_c2 + x_c4_c3 + x_c4_c5 + x_c4_dN = 1
  Successor_DV_c5: x_c5_c1 + x_c5_c2 + x_c5_c3 + x_c5_c4 + x_c5_dN = 1
  Successor_SV_c1: z_c1_c2 + z_c1_c3 + z_c1_c4 + z_c1_c5 + z_c1_dN <= 1
  Successor_SV_c2: z_c2_c1 + z_c2_c3 + z_c2_c4 + z_c2_c5 + z_c2_dN <= 1
  Successor_SV_c3: z_c3_c1 + z_c3_c2 + z_c3_c4 + z_c3_c5 + z_c3_dN <= 1
  Successor_SV_c4: z_c4_c1 + z_c4_c2 + z_c4_c3 + z_c4_c5 + z_c4_dN <= 1
  Successor_SV_c5: z_c5_c1 + z_c5_c2 + z_c5_c3 + z_c5_c4 + z_c5_dN <= 1
  Flow_DV_c1: x_d0_c1 + x_c2_c1 + x_c3_c1 + x_c4_c1 + x_c5_c1 - x_c1_dN - x_c1_c2 - x_c1_c3 - x_c1_c4 - x_c1_c5 = 0
  Flow_DV_c2: x_d0_c2 + x_c1_c2 + x_c3_c2 + x_c4_c2 + x_c5_c2 - x_c2_dN - x_c2_c1 - x_c2_c3 - x_c2_c4 - x_c2_c5 = 0
  Flow_DV_c3: x_d0_c3 + x_c1_c3 + x_c2_c3 + x_c4_c3 + x_c5_c3 - x_c3_dN - x_c3_c1 - x_c3_c2 - x_c3_c4 - x_c3_c5 = 0
  Flow_DV_c4: x_d0_c4 + x_c1_c4 + x_c2_c4 + x_c3_c4 + x_c5_c4 - x_c4_dN - x_c4_c1 - x_c4_c2 - x_c4_c3 - x_c4_c5 = 0
  Flow_DV_c5: x_d0_c5 + x_c1_c5 + x_c2_c5 + x_c3_c5 + x_c4_c5 - x_c5_dN - x_c5_c1 - x_c5_c2 - x_c5_c3 - x_c5_c4 = 0
  Flow_SV_c1: z_d0_c1 + z_c2_c1 + z_c3_c1 + z_c4_c1 + z_c5_c1 - z_c1_dN - z_c1_c2 - z_c1_c3 - z_c1_c4 - z_c1_c5 = 0
  Flow_SV_c2: z_d0_c2 + z_c1_c2 + z_c3_c2 + z_c4_c2 + z_c5_c2 - z_c2_dN - z_c2_c1 - z_c2_c3 - z_c2_c4 - z_c2_c5 = 0
  Flow_SV_c3: z_d0_c3 + z_c1_c3 + z_c2_c3 + z_c4_c3 + z_c5_c3 - z_c3_dN - z_c3_c1 - z_c3_c2 - z_c3_c4 - z_c3_c5 = 0
  Flow_SV_c4: z_d0_c4 + z_c1_c4 + z_c2_c4 + z_c3_c4 + z_c5_c4 - z_c4_dN - z_c4_c1 - z_c4_c2 - z_c4_c3 - z_c4_c5 = 0
  Flow_SV_c5: z_d0_c5 + z_c1_c5 + z_c2_c5 + z_c3_c5 + z_c4_c5 - z_c5_dN - z_c5_c1 - z_c5_c2 - z_c5_c3 - z_c5_c4 = 0
  travelDV_d0_c1: tauD_d0 - tauD_c1 + 106.02 x_d0_c1 <= 100.0
  travelDV_d0_c2: tauD_d0 - tauD_c2 + 110.405 x_d0_c2 <= 100.0
  travelDV_d0_c3: tauD_d0 - tauD_c3 + 103.2875 x_d0_c3 <= 100.0
  travelDV_d0_c4: tauD_d0 - tauD_c4 + 104.855 x_d0_c4 <= 100.0
  travelDV_d0_c5: tauD_d0 - tauD_c5 + 106.0525 x_d0_c5 <= 100.0
  travelDV_c1_c2: tauD_c1 - tauD_c2 + 115.0 x_c1_c2 + 8.0 p_1 <= 100.0
  travelDV_c1_c3: tauD_c1 - tauD_c3 + 109.75 x_c1_c3 + 8.0 p_1 <= 100.0
  travelDV_c1_c4: tauD_c1 - tauD_c4 + 117.25 x_c1_c4 + 8.0 p_1 <= 100.0
  travelDV_c1_c5: tauD_c1 - tauD_c5 + 111.81 x_c1_c5 + 8.0 p_1 <= 100.0
  travelDV_c2_c1: tauD_c2 - tauD_c1 + 112.0 x_c2_c1 + 8.0 p_2 <= 100.0
  travelDV_c2_c3: tauD_c2 - tauD_c3 + 112.46 x_c2_c3 + 8.0 p_2 <= 100.0
  travelDV_c2_c4: tauD_c2 - tauD_c4 + 115.535 x_c2_c4 + 8.0 p_2 <= 100.0
  travelDV_c2_c5: tauD_c2 - tauD_c5 + 108.3725 x_c2_c5 + 8.0 p_2 <= 100.0
  travelDV_c3_c1: tauD_c3 - tauD_c1 + 105.75 x_c3_c1 + 8.0 p_3 <= 100.0
  travelDV_c3_c2: tauD_c3 - tauD_c2 + 111.46 x_c3_c2 + 8.0 p_3 <= 100.0
  travelDV_c3_c4: tauD_c3 - tauD_c4 + 110.59 x_c3_c4 + 8.0 p_3 <= 100.0
  travelDV_c3_c5: tauD_c3 - tauD_c5 + 107.28 x_c3_c5 + 8.0 p_3 <= 100.0
  travelDV_c4_c1: tauD_c4 - tauD_c1 + 121.25 x_c4_c1 + 8.0 p_4 <= 100.0
  travelDV_c4_c2: tauD_c4 - tauD_c2 + 122.535 x_c4_c2 + 8.0 p_4 <= 100.0
  travelDV_c4_c3: tauD_c4 - tauD_c3 + 118.59 x_c4_c3 + 8.0 p_4 <= 100.0
  travelDV_c4_c5: tauD_c4 - tauD_c5 + 119.005 x_c4_c5 + 8.0 p_4 <= 100.0
  travelDV_c5_c1: tauD_c5 - tauD_c1 + 109.81 x_c5_c1 + 8.0 p_5 <= 100.0
  travelDV_c5_c2: tauD_c5 - tauD_c2 + 109.3725 x_c5_c2 + 8.0 p_5 <= 100.0
  travelDV_c5_c3: tauD_c5 - tauD_c3 + 109.28 x_c5_c3 + 8.0 p_5 <= 100.0
  travelDV_c5_c4: tauD_c5 - tauD_c4 + 113.005 x_c5_c4 + 8.0 p_5 <= 100.0
  TravelSV_d0_c1: tauS_d0 - tauS_c1 + 100.0 z_d0_c1 <= 93.98
  TravelSV_d0_c2: tauS_d0 - tauS_c2 + 100.0 z_d0_c2 <= 89.595
  TravelSV_d0_c3: tauS_d0 - tauS_c3 + 100.0 z_d0_c3 <= 96.7125
  TravelSV_d0_c4: tauS_d0 - tauS_c4 + 100.0 z_d0_c4 <= 95.145
  TravelSV_d0_c5: tauS_d0 - tauS_c5 + 100.0 z_d0_c5 <= 93.9475
  TravelSV_d0_dN: tauS_d0 - tauS_dN + 100.0 z_d0_dN <= 100.0
  TravelSV_c1_c2: tauS_c1 - tauS_c2 + 100.0 z_c1_c2 <= 84.0
  TravelSV_c1_c3: tauS_c1 - tauS_c3 + 100.0 z_c1_c3 <= 89.25
  TravelSV_c1_c4: tauS_c1 - tauS_c4 + 100.0 z_c1_c4 <= 81.75
  TravelSV_c1_c5: tauS_c1 - tauS_c5 + 100.0 z_c1_c5 <= 87.19
  TravelSV_c1_dN: tauS_c1 - tauS_dN + 100.0 z_c1_dN <= 85.98
  TravelSV_c2_c1: tauS_c2 - tauS_c1 + 100.0 z_c2_c1 <= 84.0
  TravelSV_c2_c3: tauS_c2 - tauS_c3 + 100.0 z_c2_c3 <= 83.53999999999999
  TravelSV_c2_c4: tauS_c2 - tauS_c4 + 100.0 z_c2_c4 <= 80.465
  TravelSV_c2_c5: tauS_c2 - tauS_c5 + 100.0 z_c2_c5 <= 87.6275
  TravelSV_c2_dN: tauS_c2 - tauS_dN + 100.0 z_c2_dN <= 81.595
  TravelSV_c3_c1: tauS_c3 - tauS_c1 + 100.0 z_c3_c1 <= 89.25
  TravelSV_c3_c2: tauS_c3 - tauS_c2 + 100.0 z_c3_c2 <= 83.53999999999999
  TravelSV_c3_c4: tauS_c3 - tauS_c4 + 100.0 z_c3_c4 <= 84.41
  TravelSV_c3_c5: tauS_c3 - tauS_c5 + 100.0 z_c3_c5 <= 87.72
  TravelSV_c3_dN: tauS_c3 - tauS_dN + 100.0 z_c3_dN <= 88.7125
  TravelSV_c4_c1: tauS_c4 - tauS_c1 + 100.0 z_c4_c1 <= 81.75
  TravelSV_c4_c2: tauS_c4 - tauS_c2 + 100.0 z_c4_c2 <= 80.465
  TravelSV_c4_c3: tauS_c4 - tauS_c3 + 100.0 z_c4_c3 <= 84.41
  TravelSV_c4_c5: tauS_c4 - tauS_c5 + 100.0 z_c4_c5 <= 83.995
  TravelSV_c4_dN: tauS_c4 - tauS_dN + 100.0 z_c4_dN <= 87.145
  TravelSV_c5_c1: tauS_c5 - tauS_c1 + 100.0 z_c5_c1 <= 87.19
  TravelSV_c5_c2: tauS_c5 - tauS_c2 + 100.0 z_c5_c2 <= 87.6275
  TravelSV_c5_c3: tauS_c5 - tauS_c3 + 100.0 z_c5_c3 <= 87.72
  TravelSV_c5_c4: tauS_c5 - tauS_c4 + 100.0 z_c5_c4 <= 83.995
  TravelSV_c5_dN: tauS_c5 - tauS_dN + 100.0 z_c5_dN <= 85.9475
  time_window_c1_e: tauD_c1 + 8.0 o_1 >= 0.0
  time_window_c1_l: tauD_c1 + 8.0 o_1 <= 100.0
  time_window_c2_e: tauD_c2 + 8.0 o_2 >= 50.0
  time_window_c2_l: tauD_c2 + 8.0 o_2 <= 65.0
  time_window_c3_e: tauD_c3 + 8.0 o_3 >= 0.0
  time_window_c3_l: tauD_c3 + 8.0 o_3 <= 100.0
  time_window_c4_e: tauD_c4 + 8.0 o_4 >= 30.0
  time_window_c4_l: tauD_c4 + 8.0 o_4 <= 45.0
  time_window_c5_e: tauD_c5 + 8.0 o_5 >= 0.0
  time_window_c5_l: tauD_c5 + 8.0 o_5 <= 100.0
  SyncA_c1_c2_c2: 7.0 o_1 + 100.0 x_c1_c2 - tauD_c2 - 8.0 z_c1_c2 + [ tauS_c2 * z_c1_c2 ] <= 92.0
  SyncA_c1_c2_c3: 7.0 o_1 + 100.0 x_c1_c2 - tauD_c2 - 2.75 z_c1_c3 + [ tauS_c3 * z_c1_c3 ] <= 92.0
  SyncA_c1_c2_c4: 7.0 o_1 + 100.0 x_c1_c2 - tauD_c2 - 10.25 z_c1_c4 + [ tauS_c4 * z_c1_c4 ] <= 92.0
  SyncA_c1_c2_c5: 7.0 o_1 + 100.0 x_c1_c2 - tauD_c2 - 4.81 z_c1_c5 + [ tauS_c5 * z_c1_c5 ] <= 92.0
  SyncA_c1_c2_dN: 7.0 o_1 + 100.0 x_c1_c2 - tauD_c2 - 6.02 z_c1_dN + [ tauS_dN * z_c1_dN ] <= 92.0
  SyncA_c1_c3_c2: 7.0 o_1 + 100.0 x_c1_c3 - tauD_c3 - 8.0 z_c1_c2 + [ tauS_c2 * z_c1_c2 ] <= 97.25
  SyncA_c1_c3_c3: 7.0 o_1 + 100.0 x_c1_c3 - tauD_c3 - 2.75 z_c1_c3 + [ tauS_c3 * z_c1_c3 ] <= 97.25
  SyncA_c1_c3_c4: 7.0 o_1 + 100.0 x_c1_c3 - tauD_c3 - 10.25 z_c1_c4 + [ tauS_c4 * z_c1_c4 ] <= 97.25
  SyncA_c1_c3_c5: 7.0 o_1 + 100.0 x_c1_c3 - tauD_c3 - 4.81 z_c1_c5 + [ tauS_c5 * z_c1_c5 ] <= 97.25
  SyncA_c1_c3_dN: 7.0 o_1 + 100.0 x_c1_c3 - tauD_c3 - 6.02 z_c1_dN + [ tauS_dN * z_c1_dN ] <= 97.25
  SyncA_c1_c4_c2: 7.0 o_1 + 100.0 x_c1_c4 - tauD_c4 - 8.0 z_c1_c2 + [ tauS_c2 * z_c1_c2 ] <= 89.75
  SyncA_c1_c4_c3: 7.0 o_1 + 100.0 x_c1_c4 - tauD_c4 - 2.75 z_c1_c3 + [ tauS_c3 * z_c1_c3 ] <= 89.75
  SyncA_c1_c4_c4: 7.0 o_1 + 100.0 x_c1_c4 - tauD_c4 - 10.25 z_c1_c4 + [ tauS_c4 * z_c1_c4 ] <= 89.75
  SyncA_c1_c4_c5: 7.0 o_1 + 100.0 x_c1_c4 - tauD_c4 - 4.81 z_c1_c5 + [ tauS_c5 * z_c1_c5 ] <= 89.75
  SyncA_c1_c4_dN: 7.0 o_1 + 100.0 x_c1_c4 - tauD_c4 - 6.02 z_c1_dN + [ tauS_dN * z_c1_dN ] <= 89.75
  SyncA_c1_c5_c2: 7.0 o_1 + 100.0 x_c1_c5 - tauD_c5 - 8.0 z_c1_c2 + [ tauS_c2 * z_c1_c2 ] <= 95.19
  SyncA_c1_c5_c3: 7.0 o_1 + 100.0 x_c1_c5 - tauD_c5 - 2.75 z_c1_c3 + [ tauS_c3 * z_c1_c3 ] <= 95.19
  SyncA_c1_c5_c4: 7.0 o_1 + 100.0 x_c1_c5 - tauD_c5 - 10.25 z_c1_c4 + [ tauS_c4 * z_c1_c4 ] <= 95.19
  SyncA_c1_c5_c5: 7.0 o_1 + 100.0 x_c1_c5 - tauD_c5 - 4.81 z_c1_c5 + [ tauS_c5 * z_c1_c5 ] <= 95.19
  SyncA_c1_c5_dN: 7.0 o_1 + 100.0 x_c1_c5 - tauD_c5 - 6.02 z_c1_dN + [ tauS_dN * z_c1_dN ] <= 95.19
  SyncA_c1_dN_c2: 7.0 o_1 + 100.0 x_c1_dN - tauD_dN - 8.0 z_c1_c2 + [ tauS_c2 * z_c1_c2 ] <= 93.98
  SyncA_c1_dN_c3: 7.0 o_1 + 100.0 x_c1_dN - tauD_dN - 2.75 z_c1_c3 + [ tauS_c3 * z_c1_c3 ] <= 93.98
  SyncA_c1_dN_c4: 7.0 o_1 + 100.0 x_c1_dN - tauD_dN - 10.25 z_c1_c4 + [ tauS_c4 * z_c1_c4 ] <= 93.98
  SyncA_c1_dN_c5: 7.0 o_1 + 100.0 x_c1_dN - tauD_dN - 4.81 z_c1_c5 + [ tauS_c5 * z_c1_c5 ] <= 93.98
  SyncA_c1_dN_dN: 7.0 o_1 + 100.0 x_c1_dN - tauD_dN - 6.02 z_c1_dN + [ tauS_dN * z_c1_dN ] <= 93.98
  SyncA_c2_c1_c1: 4.0 o_2 + 100.0 x_c2_c1 - tauD_c1 - 8.0 z_c2_c1 + [ tauS_c1 * z_c2_c1 ] <= 92.0
  SyncA_c2_c1_c3: 4.0 o_2 + 100.0 x_c2_c1 - tauD_c1 - 8.46 z_c2_c3 + [ tauS_c3 * z_c2_c3 ] <= 92.0
  SyncA_c2_c1_c4: 4.0 o_2 + 100.0 x_c2_c1 - tauD_c1 - 11.535 z_c2_c4 + [ tauS_c4 * z_c2_c4 ] <= 92.0
  SyncA_c2_c1_c5: 4.0 o_2 + 100.0 x_c2_c1 - tauD_c1 - 4.3725 z_c2_c5 + [ tauS_c5 * z_c2_c5 ] <= 92.0
  SyncA_c2_c1_dN: 4.0 o_2 + 100.0 x_c2_c1 - tauD_c1 - 10.405 z_c2_dN + [ tauS_dN * z_c2_dN ] <= 92.0
  SyncA_c2_c3_c1: 4.0 o_2 + 100.0 x_c2_c3 - tauD_c3 - 8.0 z_c2_c1 + [ tauS_c1 * z_c2_c1 ] <= 91.53999999999999
  SyncA_c2_c3_c3: 4.0 o_2 + 100.0 x_c2_c3 - tauD_c3 - 8.46 z_c2_c3 + [ tauS_c3 * z_c2_c3 ] <= 91.53999999999999
  SyncA_c2_c3_c4: 4.0 o_2 + 100.0 x_c2_c3 - tauD_c3 - 11.535 z_c2_c4 + [ tauS_c4 * z_c2_c4 ] <= 91.53999999999999
  SyncA_c2_c3_c5: 4.0 o_2 + 100.0 x_c2_c3 - tauD_c3 - 4.3725 z_c2_c5 + [ tauS_c5 * z_c2_c5 ] <= 91.53999999999999
  SyncA_c2_c3_dN: 4.0 o_2 + 100.0 x_c2_c3 - tauD_c3 - 10.405 z_c2_dN + [ tauS_dN * z_c2_dN ] <= 91.53999999999999
  SyncA_c2_c4_c1: 4.0 o_2 + 100.0 x_c2_c4 - tauD_c4 - 8.0 z_c2_c1 + [ tauS_c1 * z_c2_c1 ] <= 88.465
  SyncA_c2_c4_c3: 4.0 o_2 + 100.0 x_c2_c4 - tauD_c4 - 8.46 z_c2_c3 + [ tauS_c3 * z_c2_c3 ] <= 88.465
  SyncA_c2_c4_c4: 4.0 o_2 + 100.0 x_c2_c4 - tauD_c4 - 11.535 z_c2_c4 + [ tauS_c4 * z_c2_c4 ] <= 88.465
  SyncA_c2_c4_c5: 4.0 o_2 + 100.0 x_c2_c4 - tauD_c4 - 4.3725 z_c2_c5 + [ tauS_c5 * z_c2_c5 ] <= 88.465
  SyncA_c2_c4_dN: 4.0 o_2 + 100.0 x_c2_c4 - tauD_c4 - 10.405 z_c2_dN + [ tauS_dN * z_c2_dN ] <= 88.465
  SyncA_c2_c5_c1: 4.0 o_2 + 100.0 x_c2_c5 - tauD_c5 - 8.0 z_c2_c1 + [ tauS_c1 * z_c2_c1 ] <= 95.6275
  SyncA_c2_c5_c3: 4.0 o_2 + 100.0 x_c2_c5 - tauD_c5 - 8.46 z_c2_c3 + [ tauS_c3 * z_c2_c3 ] <= 95.6275
  SyncA_c2_c5_c4: 4.0 o_2 + 100.0 x_c2_c5 - tauD_c5 - 11.535 z_c2_c4 + [ tauS_c4 * z_c2_c4 ] <= 95.6275
  SyncA_c2_c5_c5: 4.0 o_2 + 100.0 x_c2_c5 - tauD_c5 - 4.3725 z_c2_c5 + [ tauS_c5 * z_c2_c5 ] <= 95.6275
  SyncA_c2_c5_dN: 4.0 o_2 + 100.0 x_c2_c5 - tauD_c5 - 10.405 z_c2_dN + [ tauS_dN * z_c2_dN ] <= 95.6275
  SyncA_c2_dN_c1: 4.0 o_2 + 100.0 x_c2_dN - tauD_dN - 8.0 z_c2_c1 + [ tauS_c1 * z_c2_c1 ] <= 89.595
  SyncA_c2_dN_c3: 4.0 o_2 + 100.0 x_c2_dN - tauD_dN - 8.46 z_c2_c3 + [ tauS_c3 * z_c2_c3 ] <= 89.595
  SyncA_c2_dN_c4: 4.0 o_2 + 100.0 x_c2_dN - tauD_dN - 11.535 z_c2_c4 + [ tauS_c4 * z_c2_c4 ] <= 89.595
  SyncA_c2_dN_c5: 4.0 o_2 + 100.0 x_c2_dN - tauD_dN - 4.3725 z_c2_c5 + [ tauS_c5 * z_c2_c5 ] <= 89.595
  SyncA_c2_dN_dN: 4.0 o_2 + 100.0 x_c2_dN - tauD_dN - 10.405 z_c2_dN + [ tauS_dN * z_c2_dN ] <= 89.595
  SyncA_c3_c1_c1: 3.0 o_3 + 100.0 x_c3_c1 - tauD_c1 - 2.75 z_c3_c1 + [ tauS_c1 * z_c3_c1 ] <= 97.25
  SyncA_c3_c1_c2: 3.0 o_3 + 100.0 x_c3_c1 - tauD_c1 - 8.46 z_c3_c2 + [ tauS_c2 * z_c3_c2 ] <= 97.25
  SyncA_c3_c1_c4: 3.0 o_3 + 100.0 x_c3_c1 - tauD_c1 - 7.59 z_c3_c4 + [ tauS_c4 * z_c3_c4 ] <= 97.25
  SyncA_c3_c1_c5: 3.0 o_3 + 100.0 x_c3_c1 - tauD_c1 - 4.28 z_c3_c5 + [ tauS_c5 * z_c3_c5 ] <= 97.25
  SyncA_c3_c1_dN: 3.0 o_3 + 100.0 x_c3_c1 - tauD_c1 - 3.2875 z_c3_dN + [ tauS_dN * z_c3_dN ] <= 97.25
  SyncA_c3_c2_c1: 3.0 o_3 + 100.0 x_c3_c2 - tauD_c2 - 2.75 z_c3_c1 + [ tauS_c1 * z_c3_c1 ] <= 91.53999999999999
  SyncA_c3_c2_c2: 3.0 o_3 + 100.0 x_c3_c2 - tauD_c2 - 8.46 z_c3_c2 + [ tauS_c2 * z_c3_c2 ] <= 91.53999999999999
  SyncA_c3_c2_c4: 3.0 o_3 + 100.0 x_c3_c2 - tauD_c2 - 7.59 z_c3_c4 + [ tauS_c4 * z_c3_c4 ] <= 91.53999999999999
  SyncA_c3_c2_c5: 3.0 o_3 + 100.0 x_c3_c2 - tauD_c2 - 4.28 z_c3_c5 + [ tauS_c5 * z_c3_c5 ] <= 91.53999999999999
  SyncA_c3_c2_dN: 3.0 o_3 + 100.0 x_c3_c2 - tauD_c2 - 3.2875 z_c3_dN + [ tauS_dN * z_c3_dN ] <= 91.53999999999999
  SyncA_c3_c4_c1: 3.0 o_3 + 100.0 x_c3_c4 - tauD_c4 - 2.75 z_c3_c1 + [ tauS_c1 * z_c3_c1 ] <= 92.41
  SyncA_c3_c4_c2: 3.0 o_3 + 100.0 x_c3_c4 - tauD_c4 - 8.46 z_c3_c2 + [ tauS_c2 * z_c3_c2 ] <= 92.41
  SyncA_c3_c4_c4: 3.0 o_3 + 100.0 x_c3_c4 - tauD_c4 - 7.59 z_c3_c4 + [ tauS_c4 * z_c3_c4 ] <= 92.41
  SyncA_c3_c4_c5: 3.0 o_3 + 100.0 x_c3_c4 - tauD_c4 - 4.28 z_c3_c5 + [ tauS_c5 * z_c3_c5 ] <= 92.41
  SyncA_c3_c4_dN: 3.0 o_3 + 100.0 x_c3_c4 - tauD_c4 - 3.2875 z_c3_dN + [ tauS_dN * z_c3_dN ] <= 92.41
  SyncA_c3_c5_c1: 3.0 o_3 + 100.0 x_c3_c5 - tauD_c5 - 2.75 z_c3_c1 + [ tauS_c1 * z_c3_c1 ] <= 95.72
  SyncA_c3_c5_c2: 3.0 o_3 + 100.0 x_c3_c5 - tauD_c5 - 8.46 z_c3_c2 + [ tauS_c2 * z_c3_c2 ] <= 95.72
  SyncA_c3_c5_c4: 3.0 o_3 + 100.0 x_c3_c5 - tauD_c5 - 7.59 z_c3_c4 + [ tauS_c4 * z_c3_c4 ] <= 95.72
  SyncA_c3_c5_c5: 3.0 o_3 + 100.0 x_c3_c5 - tauD_c5 - 4.28 z_c3_c5 + [ tauS_c5 * z_c3_c5 ] <= 95.72
  SyncA_c3_c5_dN: 3.0 o_3 + 100.0 x_c3_c5 - tauD_c5 - 3.2875 z_c3_dN + [ tauS_dN * z_c3_dN ] <= 95.72
  SyncA_c3_dN_c1: 3.0 o_3 + 100.0 x_c3_dN - tauD_dN - 2.75 z_c3_c1 + [ tauS_c1 * z_c3_c1 ] <= 96.7125
  SyncA_c3_dN_c2: 3.0 o_3 + 100.0 x_c3_dN - tauD_dN - 8.46 z_c3_c2 + [ tauS_c2 * z_c3_c2 ] <= 96.7125
  SyncA_c3_dN_c4: 3.0 o_3 + 100.0 x_c3_dN - tauD_dN - 7.59 z_c3_c4 + [ tauS_c4 * z_c3_c4 ] <= 96.7125
  SyncA_c3_dN_c5: 3.0 o_3 + 100.0 x_c3_dN - tauD_dN - 4.28 z_c3_c5 + [ tauS_c5 * z_c3_c5 ] <= 96.7125
  SyncA_c3_dN_dN: 3.0 o_3 + 100.0 x_c3_dN - tauD_dN - 3.2875 z_c3_dN + [ tauS_dN * z_c3_dN ] <= 96.7125
  SyncA_c4_c1_c1: 11.0 o_4 + 100.0 x_c4_c1 - tauD_c1 - 10.25 z_c4_c1 + [ tauS_c1 * z_c4_c1 ] <= 89.75
  SyncA_c4_c1_c2: 11.0 o_4 + 100.0 x_c4_c1 - tauD_c1 - 11.535 z_c4_c2 + [ tauS_c2 * z_c4_c2 ] <= 89.75
  SyncA_c4_c1_c3: 11.0 o_4 + 100.0 x_c4_c1 - tauD_c1 - 7.59 z_c4_c3 + [ tauS_c3 * z_c4_c3 ] <= 89.75
  SyncA_c4_c1_c5: 11.0 o_4 + 100.0 x_c4_c1 - tauD_c1 - 8.005 z_c4_c5 + [ tauS_c5 * z_c4_c5 ] <= 89.75
  SyncA_c4_c1_dN: 11.0 o_4 + 100.0 x_c4_c1 - tauD_c1 - 4.855 z_c4_dN + [ tauS_dN * z_c4_dN ] <= 89.75
  SyncA_c4_c2_c1: 11.0 o_4 + 100.0 x_c4_c2 - tauD_c2 - 10.25 z_c4_c1 + [ tauS_c1 * z_c4_c1 ] <= 88.465
  SyncA_c4_c2_c2: 11.0 o_4 + 100.0 x_c4_c2 - tauD_c2 - 11.535 z_c4_c2 + [ tauS_c2 * z_c4_c2 ] <= 88.465
  SyncA_c4_c2_c3: 11.0 o_4 + 100.0 x_c4_c2 - tauD_c2 - 7.59 z_c4_c3 + [ tauS_c3 * z_c4_c3 ] <= 88.465
  SyncA_c4_c2_c5: 11.0 o_4 + 100.0 x_c4_c2 - tauD_c2 - 8.005 z_c4_c5 + [ tauS_c5 * z_c4_c5 ] <= 88.465
  SyncA_c4_c2_dN: 11.0 o_4 + 100.0 x_c4_c2 - tauD_c2 - 4.855 z_c4_dN + [ tauS_dN * z_c4_dN ] <= 88.465
  SyncA_c4_c3_c1: 11.0 o_4 + 100.0 x_c4_c3 - tauD_c3 - 10.25 z_c4_c1 + [ tauS_c1 * z_c4_c1 ] <= 92.41
  SyncA_c4_c3_c2: 11.0 o_4 + 100.0 x_c4_c3 - tauD_c3 - 11.535 z_c4_c2 + [ tauS_c2 * z_c4_c2 ] <= 92.41
  SyncA_c4_c3_c3: 11.0 o_4 + 100.0 x_c4_c3 - tauD_c3 - 7.59 z_c4_c3 + [ tauS_c3 * z_c4_c3 ] <= 92.41
  SyncA_c4_c3_c5: 11.0 o_4 + 100.0 x_c4_c3 - tauD_c3 - 8.005 z_c4_c5 + [ tauS_c5 * z_c4_c5 ] <= 92.41
  SyncA_c4_c3_dN: 11.0 o_4 + 100.0 x_c4_c3 - tauD_c3 - 4.855 z_c4_dN + [ tauS_dN * z_c4_dN ] <= 92.41
  SyncA_c4_c5_c1: 11.0 o_4 + 100.0 x_c4_c5 - tauD_c5 - 10.25 z_c4_c1 + [ tauS_c1 * z_c4_c1 ] <= 91.995
  SyncA_c4_c5_c2: 11.0 o_4 + 100.0 x_c4_c5 - tauD_c5 - 11.535 z_c4_c2 + [ tauS_c2 * z_c4_c2 ] <= 91.995
  SyncA_c4_c5_c3: 11.0 o_4 + 100.0 x_c4_c5 - tauD_c5 - 7.59 z_c4_c3 + [ tauS_c3 * z_c4_c3 ] <= 91.995
  SyncA_c4_c5_c5: 11.0 o_4 + 100.0 x_c4_c5 - tauD_c5 - 8.005 z_c4_c5 + [ tauS_c5 * z_c4_c5 ] <= 91.995
  SyncA_c4_c5_dN: 11.0 o_4 + 100.0 x_c4_c5 - tauD_c5 - 4.855 z_c4_dN + [ tauS_dN * z_c4_dN ] <= 91.995
  SyncA_c4_dN_c1: 11.0 o_4 + 100.0 x_c4_dN - tauD_dN - 10.25 z_c4_c1 + [ tauS_c1 * z_c4_c1 ] <= 95.145
  SyncA_c4_dN_c2: 11.0 o_4 + 100.0 x_c4_dN - tauD_dN - 11.535 z_c4_c2 + [ tauS_c2 * z_c4_c2 ] <= 95.145
  SyncA_c4_dN_c3: 11.0 o_4 + 100.0 x_c4_dN - tauD_dN - 7.59 z_c4_c3 + [ tauS_c3 * z_c4_c3 ] <= 95.145
  SyncA_c4_dN_c5: 11.0 o_4 + 100.0 x_c4_dN - tauD_dN - 8.005 z_c4_c5 + [ tauS_c5 * z_c4_c5 ] <= 95.145
  SyncA_c4_dN_dN: 11.0 o_4 + 100.0 x_c4_dN - tauD_dN - 4.855 z_c4_dN + [ tauS_dN * z_c4_dN ] <= 95.145
  SyncA_c5_c1_c1: 5.0 o_5 + 100.0 x_c5_c1 - tauD_c1 - 4.81 z_c5_c1 + [ tauS_c1 * z_c5_c1 ] <= 95.19
  SyncA_c5_c1_c2: 5.0 o_5 + 100.0 x_c5_c1 - tauD_c1 - 4.3725 z_c5_c2 + [ tauS_c2 * z_c5_c2 ] <= 95.19
  SyncA_c5_c1_c3: 5.0 o_5 + 100.0 x_c5_c1 - tauD_c1 - 4.28 z_c5_c3 + [ tauS_c3 * z_c5_c3 ] <= 95.19
  SyncA_c5_c1_c4: 5.0 o_5 + 100.0 x_c5_c1 - tauD_c1 - 8.005 z_c5_c4 + [ tauS_c4 * z_c5_c4 ] <= 95.19
  SyncA_c5_c1_dN: 5.0 o_5 + 100.0 x_c5_c1 - tauD_c1 - 6.0525 z_c5_dN + [ tauS_dN * z_c5_dN ] <= 95.19
  SyncA_c5_c2_c1: 5.0 o_5 + 100.0 x_c5_c2 - tauD_c2 - 4.81 z_c5_c1 + [ tauS_c1 * z_c5_c1 ] <= 95.6275
  SyncA_c5_c2_c2: 5.0 o_5 + 100.0 x_c5_c2 - tauD_c2 - 4.3725 z_c5_c2 + [ tauS_c2 * z_c5_c2 ] <= 95.6275
  SyncA_c5_c2_c3: 5.0 o_5 + 100.0 x_c5_c2 - tauD_c2 - 4.28 z_c5_c3 + [ tauS_c3 * z_c5_c3 ] <= 95.6275
  SyncA_c5_c2_c4: 5.0 o_5 + 100.0 x_c5_c2 - tauD_c2 - 8.005 z_c5_c4 + [ tauS_c4 * z_c5_c4 ] <= 95.6275
  SyncA_c5_c2_dN: 5.0 o_5 + 100.0 x_c5_c2 - tauD_c2 - 6.0525 z_c5_dN + [ tauS_dN * z_c5_dN ] <= 95.6275
  SyncA_c5_c3_c1: 5.0 o_5 + 100.0 x_c5_c3 - tauD_c3 - 4.81 z_c5_c1 + [ tauS_c1 * z_c5_c1 ] <= 95.72
  SyncA_c5_c3_c2: 5.0 o_5 + 100.0 x_c5_c3 - tauD_c3 - 4.3725 z_c5_c2 + [ tauS_c2 * z_c5_c2 ] <= 95.72
  SyncA_c5_c3_c3: 5.0 o_5 + 100.0 x_c5_c3 - tauD_c3 - 4.28 z_c5_c3 + [ tauS_c3 * z_c5_c3 ] <= 95.72
  SyncA_c5_c3_c4: 5.0 o_5 + 100.0 x_c5_c3 - tauD_c3 - 8.005 z_c5_c4 + [ tauS_c4 * z_c5_c4 ] <= 95.72
  SyncA_c5_c3_dN: 5.0 o_5 + 100.0 x_c5_c3 - tauD_c3 - 6.0525 z_c5_dN + [ tauS_dN * z_c5_dN ] <= 95.72
  SyncA_c5_c4_c1: 5.0 o_5 + 100.0 x_c5_c4 - tauD_c4 - 4.81 z_c5_c1 + [ tauS_c1 * z_c5_c1 ] <= 91.995
  SyncA_c5_c4_c2: 5.0 o_5 + 100.0 x_c5_c4 - tauD_c4 - 4.3725 z_c5_c2 + [ tauS_c2 * z_c5_c2 ] <= 91.995
  SyncA_c5_c4_c3: 5.0 o_5 + 100.0 x_c5_c4 - tauD_c4 - 4.28 z_c5_c3 + [ tauS_c3 * z_c5_c3 ] <= 91.995
  SyncA_c5_c4_c4: 5.0 o_5 + 100.0 x_c5_c4 - tauD_c4 - 8.005 z_c5_c4 + [ tauS_c4 * z_c5_c4 ] <= 91.995
  SyncA_c5_c4_dN: 5.0 o_5 + 100.0 x_c5_c4 - tauD_c4 - 6.0525 z_c5_dN + [ tauS_dN * z_c5_dN ] <= 91.995
  SyncA_c5_dN_c1: 5.0 o_5 + 100.0 x_c5_dN - tauD_dN - 4.81 z_c5_c1 + [ tauS_c1 * z_c5_c1 ] <= 93.9475
  SyncA_c5_dN_c2: 5.0 o_5 + 100.0 x_c5_dN - tauD_dN - 4.3725 z_c5_c2 + [ tauS_c2 * z_c5_c2 ] <= 93.9475
  SyncA_c5_dN_c3: 5.0 o_5 + 100.0 x_c5_dN - tauD_dN - 4.28 z_c5_c3 + [ tauS_c3 * z_c5_c3 ] <= 93.9475
  SyncA_c5_dN_c4: 5.0 o_5 + 100.0 x_c5_dN - tauD_dN - 8.005 z_c5_c4 + [ tauS_c4 * z_c5_c4 ] <= 93.9475
  SyncA_c5_dN_dN: 5.0 o_5 + 100.0 x_c5_dN - tauD_dN - 6.0525 z_c5_dN + [ tauS_dN * z_c5_dN ] <= 93.9475
  SVFirst_c1_c2: tauS_c2 - tauD_c1 + 7.0 o_1 - 100.0 z_c1_c2 >= -77.0
  SVFirst_c1_c3: tauS_c3 - tauD_c1 + 7.0 o_1 - 100.0 z_c1_c3 >= -82.25
  SVFirst_c1_c4: tauS_c4 - tauD_c1 + 7.0 o_1 - 100.0 z_c1_c4 >= -74.75
  SVFirst_c1_c5: tauS_c5 - tauD_c1 + 7.0 o_1 - 100.0 z_c1_c5 >= -80.19
  SVFirst_c1_dN:  tauS_dN - tauD_c1 + 7.0 o_1 - 100.0 z_c1_dN >= -78.98
  SVFirst_c2_c1: tauS_c1 - tauD_c2 + 4.0 o_2 - 100.0 z_c2_c1 >= -80.0
  SVFirst_c2_c3: tauS_c3 - tauD_c2 + 4.0 o_2 - 100.0 z_c2_c3 >= -79.53999999999999
  SVFirst_c2_c4: tauS_c4 - tauD_c2 + 4.0 o_2 - 100.0 z_c2_c4 >= -76.465
  SVFirst_c2_c5: tauS_c5 - tauD_c2 + 4.0 o_2 - 100.0 z_c2_c5 >= -83.6275
  SVFirst_c2_dN:  tauS_dN - tauD_c2 + 4.0 o_2 - 100.0 z_c2_dN >= -77.595
  SVFirst_c3_c1: tauS_c1 - tauD_c3 + 3.0 o_3 - 100.0 z_c3_c1 >= -86.25
  SVFirst_c3_c2: tauS_c2 - tauD_c3 + 3.0 o_3 - 100.0 z_c3_c2 >= -80.53999999999999
  SVFirst_c3_c4: tauS_c4 - tauD_c3 + 3.0 o_3 - 100.0 z_c3_c4 >= -81.41
  SVFirst_c3_c5: tauS_c5 - tauD_c3 + 3.0 o_3 - 100.0 z_c3_c5 >= -84.72
  SVFirst_c3_dN:  tauS_dN - tauD_c3 + 3.0 o_3 - 100.0 z_c3_dN >= -85.7125
  SVFirst_c4_c1: tauS_c1 - tauD_c4 + 11.0 o_4 - 100.0 z_c4_c1 >= -70.75
  SVFirst_c4_c2: tauS_c2 - tauD_c4 + 11.0 o_4 - 100.0 z_c4_c2 >= -69.465
  SVFirst_c4_c3: tauS_c3 - tauD_c4 + 11.0 o_4 - 100.0 z_c4_c3 >= -73.41
  SVFirst_c4_c5: tauS_c5 - tauD_c4 + 11.0 o_4 - 100.0 z_c4_c5 >= -72.995
  SVFirst_c4_dN:  tauS_dN - tauD_c4 + 11.0 o_4 - 100.0 z_c4_dN >= -76.145
  SVFirst_c5_c1: tauS_c1 - tauD_c5 + 5.0 o_5 - 100.0 z_c5_c1 >= -82.19
  SVFirst_c5_c2: tauS_c2 - tauD_c5 + 5.0 o_5 - 100.0 z_c5_c2 >= -82.6275
  SVFirst_c5_c3: tauS_c3 - tauD_c5 + 5.0 o_5 - 100.0 z_c5_c3 >= -82.72
  SVFirst_c5_c4: tauS_c4 - tauD_c5 + 5.0 o_5 - 100.0 z_c5_c4 >= -78.995
  SVFirst_c5_dN:  tauS_dN - tauD_c5 + 5.0 o_5 - 100.0 z_c5_dN >= -80.9475
  Precedence_Swap_c1:  p_1 - z_d0_c1 - z_c2_c1 - z_c3_c1 - z_c4_c1 - z_c5_c1 = 0
  Precedence_Swap_c2:  p_2 - z_d0_c2 - z_c1_c2 - z_c3_c2 - z_c4_c2 - z_c5_c2 = 0
  Precedence_Swap_c3:  p_3 - z_d0_c3 - z_c1_c3 - z_c2_c3 - z_c4_c3 - z_c5_c3 = 0
  Precedence_Swap_c4:  p_4 - z_d0_c4 - z_c1_c4 - z_c2_c4 - z_c3_c4 - z_c5_c4 = 0
  Precedence_Swap_c5:  p_5 - z_d0_c5 - z_c1_c5 - z_c2_c5 - z_c3_c5 - z_c4_c5 = 0
  Order_c1:  o_1 - p_1 <= 0
  Order_c2:  o_2 - p_2 <= 0
  Order_c3:  o_3 - p_3 <= 0
  Order_c4:  o_4 - p_4 <= 0
  Order_c5:  o_5 - p_5 <= 0
  WorkingTimeS_c1:  tauS_c1 <= 85.98
  WorkingTimeS_c2:  tauS_c2 <= 81.595
  WorkingTimeS_c3:  tauS_c3 <= 88.7125
  WorkingTimeS_c4:  tauS_c4 <= 87.145
  WorkingTimeS_c5:  tauS_c5 <= 85.9475
  FreightDV_c1_c2:  k_c2 - kDash_c1 - 10.0 p_1 + 10.0 x_c1_c2 + [ kDash_c1 * p_1 - kDash_c1 * o_1 + 10.0 p_1 * o_1 ] <= 10.0
  FreightDV_c1_c3:  k_c3 - kDash_c1 - 10.0 p_1 + 10.0 x_c1_c3 + [ kDash_c1 * p_1 - kDash_c1 * o_1 + 10.0 p_1 * o_1 ] <= 10.0
  FreightDV_c1_c4:  k_c4 - kDash_c1 - 10.0 p_1 + 10.0 x_c1_c4 + [ kDash_c1 * p_1 - kDash_c1 * o_1 + 10.0 p_1 * o_1 ] <= 10.0
  FreightDV_c1_c5:  k_c5 - kDash_c1 - 10.0 p_1 + 10.0 x_c1_c5 + [ kDash_c1 * p_1 - kDash_c1 * o_1 + 10.0 p_1 * o_1 ] <= 10.0
  FreightDV_c1_dN:  k_dN - kDash_c1 - 10.0 p_1 + 10.0 x_c1_dN + [ kDash_c1 * p_1 - kDash_c1 * o_1 + 10.0 p_1 * o_1 ] <= 10.0
  FreightDV_c1:  kDash_c1 - k_c1 - 10.0 o_1 + [ k_c1 * o_1 ] <= -4.0
  FreightDV_c2_c1:  k_c1 - kDash_c2 - 10.0 p_2 + 10.0 x_c2_c1 + [ kDash_c2 * p_2 - kDash_c2 * o_2 + 10.0 p_2 * o_2 ] <= 10.0
  FreightDV_c2_c3:  k_c3 - kDash_c2 - 10.0 p_2 + 10.0 x_c2_c3 + [ kDash_c2 * p_2 - kDash_c2 * o_2 + 10.0 p_2 * o_2 ] <= 10.0
  FreightDV_c2_c4:  k_c4 - kDash_c2 - 10.0 p_2 + 10.0 x_c2_c4 + [ kDash_c2 * p_2 - kDash_c2 * o_2 + 10.0 p_2 * o_2 ] <= 10.0
  FreightDV_c2_c5:  k_c5 - kDash_c2 - 10.0 p_2 + 10.0 x_c2_c5 + [ kDash_c2 * p_2 - kDash_c2 * o_2 + 10.0 p_2 * o_2 ] <= 10.0
  FreightDV_c2_dN:  k_dN - kDash_c2 - 10.0 p_2 + 10.0 x_c2_dN + [ kDash_c2 * p_2 - kDash_c2 * o_2 + 10.0 p_2 * o_2 ] <= 10.0
  FreightDV_c2:  kDash_c2 - k_c2 - 10.0 o_2 + [ k_c2 * o_2 ] <= -7.0
  FreightDV_c3_c1:  k_c1 - kDash_c3 - 10.0 p_3 + 10.0 x_c3_c1 + [ kDash_c3 * p_3 - kDash_c3 * o_3 + 10.0 p_3 * o_3 ] <= 10.0
  FreightDV_c3_c2:  k_c2 - kDash_c3 - 10.0 p_3 + 10.0 x_c3_c2 + [ kDash_c3 * p_3 - kDash_c3 * o_3 + 10.0 p_3 * o_3 ] <= 10.0
  FreightDV_c3_c4:  k_c4 - kDash_c3 - 10.0 p_3 + 10.0 x_c3_c4 + [ kDash_c3 * p_3 - kDash_c3 * o_3 + 10.0 p_3 * o_3 ] <= 10.0
  FreightDV_c3_c5:  k_c5 - kDash_c3 - 10.0 p_3 + 10.0 x_c3_c5 + [ kDash_c3 * p_3 - kDash_c3 * o_3 + 10.0 p_3 * o_3 ] <= 10.0
  FreightDV_c3_dN:  k_dN - kDash_c3 - 10.0 p_3 + 10.0 x_c3_dN + [ kDash_c3 * p_3 - kDash_c3 * o_3 + 10.0 p_3 * o_3 ] <= 10.0
  FreightDV_c3:  kDash_c3 - k_c3 - 10.0 o_3 + [ k_c3 * o_3 ] <= -4.0
  FreightDV_c4_c1:  k_c1 - kDash_c4 - 10.0 p_4 + 10.0 x_c4_c1 + [ kDash_c4 * p_4 - kDash_c4 * o_4 + 10.0 p_4 * o_4 ] <= 10.0
  FreightDV_c4_c2:  k_c2 - kDash_c4 - 10.0 p_4 + 10.0 x_c4_c2 + [ kDash_c4 * p_4 - kDash_c4 * o_4 + 10.0 p_4 * o_4 ] <= 10.0
  FreightDV_c4_c3:  k_c3 - kDash_c4 - 10.0 p_4 + 10.0 x_c4_c3 + [ kDash_c4 * p_4 - kDash_c4 * o_4 + 10.0 p_4 * o_4 ] <= 10.0
  FreightDV_c4_c5:  k_c5 - kDash_c4 - 10.0 p_4 + 10.0 x_c4_c5 + [ kDash_c4 * p_4 - kDash_c4 * o_4 + 10.0 p_4 * o_4 ] <= 10.0
  FreightDV_c4_dN:  k_dN - kDash_c4 - 10.0 p_4 + 10.0 x_c4_dN + [ kDash_c4 * p_4 - kDash_c4 * o_4 + 10.0 p_4 * o_4 ] <= 10.0
  FreightDV_c4:  kDash_c4 - k_c4 - 10.0 o_4 + [ k_c4 * o_4 ] <= -3.0
  FreightDV_c5_c1:  k_c1 - kDash_c5 - 10.0 p_5 + 10.0 x_c5_c1 + [ kDash_c5 * p_5 - kDash_c5 * o_5 + 10.0 p_5 * o_5 ] <= 10.0
  FreightDV_c5_c2:  k_c2 - kDash_c5 - 10.0 p_5 + 10.0 x_c5_c2 + [ kDash_c5 * p_5 - kDash_c5 * o_5 + 10.0 p_5 * o_5 ] <= 10.0
  FreightDV_c5_c3:  k_c3 - kDash_c5 - 10.0 p_5 + 10.0 x_c5_c3 + [ kDash_c5 * p_5 - kDash_c5 * o_5 + 10.0 p_5 * o_5 ] <= 10.0
  FreightDV_c5_c4:  k_c4 - kDash_c5 - 10.0 p_5 + 10.0 x_c5_c4 + [ kDash_c5 * p_5 - kDash_c5 * o_5 + 10.0 p_5 * o_5 ] <= 10.0
  FreightDV_c5_dN:  k_dN - kDash_c5 - 10.0 p_5 + 10.0 x_c5_dN + [ kDash_c5 * p_5 - kDash_c5 * o_5 + 10.0 p_5 * o_5 ] <= 10.0
  FreightDV_c5:  kDash_c5 - k_c5 - 10.0 o_5 + [ k_c5 * o_5 ] <= -4.0
  FreightSV_c1_c2:  pi_c2 - pi_c1 - kDash_c1 + 20.0 z_c1_c2 + [ kDash_c1 * o_1 - k_c1 * o_1 ] <= 10.0
  FreightSV_c1_c3:  pi_c3 - pi_c1 - kDash_c1 + 20.0 z_c1_c3 + [ kDash_c1 * o_1 - k_c1 * o_1 ] <= 10.0
  FreightSV_c1_c4:  pi_c4 - pi_c1 - kDash_c1 + 20.0 z_c1_c4 + [ kDash_c1 * o_1 - k_c1 * o_1 ] <= 10.0
  FreightSV_c1_c5:  pi_c5 - pi_c1 - kDash_c1 + 20.0 z_c1_c5 + [ kDash_c1 * o_1 - k_c1 * o_1 ] <= 10.0
  FreightSV_c1_dN:  pi_dN - pi_c1 - kDash_c1 + 20.0 z_c1_dN + [ kDash_c1 * o_1 - k_c1 * o_1 ] <= 10.0
  FreightSV_c2_c1:  pi_c1 - pi_c2 - kDash_c2 + 20.0 z_c2_c1 + [ kDash_c2 * o_2 - k_c2 * o_2 ] <= 10.0
  FreightSV_c2_c3:  pi_c3 - pi_c2 - kDash_c2 + 20.0 z_c2_c3 + [ kDash_c2 * o_2 - k_c2 * o_2 ] <= 10.0
  FreightSV_c2_c4:  pi_c4 - pi_c2 - kDash_c2 + 20.0 z_c2_c4 + [ kDash_c2 * o_2 - k_c2 * o_2 ] <= 10.0
  FreightSV_c2_c5:  pi_c5 - pi_c2 - kDash_c2 + 20.0 z_c2_c5 + [ kDash_c2 * o_2 - k_c2 * o_2 ] <= 10.0
  FreightSV_c2_dN:  pi_dN - pi_c2 - kDash_c2 + 20.0 z_c2_dN + [ kDash_c2 * o_2 - k_c2 * o_2 ] <= 10.0
  FreightSV_c3_c1:  pi_c1 - pi_c3 - kDash_c3 + 20.0 z_c3_c1 + [ kDash_c3 * o_3 - k_c3 * o_3 ] <= 10.0
  FreightSV_c3_c2:  pi_c2 - pi_c3 - kDash_c3 + 20.0 z_c3_c2 + [ kDash_c3 * o_3 - k_c3 * o_3 ] <= 10.0
  FreightSV_c3_c4:  pi_c4 - pi_c3 - kDash_c3 + 20.0 z_c3_c4 + [ kDash_c3 * o_3 - k_c3 * o_3 ] <= 10.0
  FreightSV_c3_c5:  pi_c5 - pi_c3 - kDash_c3 + 20.0 z_c3_c5 + [ kDash_c3 * o_3 - k_c3 * o_3 ] <= 10.0
  FreightSV_c3_dN:  pi_dN - pi_c3 - kDash_c3 + 20.0 z_c3_dN + [ kDash_c3 * o_3 - k_c3 * o_3 ] <= 10.0
  FreightSV_c4_c1:  pi_c1 - pi_c4 - kDash_c4 + 20.0 z_c4_c1 + [ kDash_c4 * o_4 - k_c4 * o_4 ] <= 10.0
  FreightSV_c4_c2:  pi_c2 - pi_c4 - kDash_c4 + 20.0 z_c4_c2 + [ kDash_c4 * o_4 - k_c4 * o_4 ] <= 10.0
  FreightSV_c4_c3:  pi_c3 - pi_c4 - kDash_c4 + 20.0 z_c4_c3 + [ kDash_c4 * o_4 - k_c4 * o_4 ] <= 10.0
  FreightSV_c4_c5:  pi_c5 - pi_c4 - kDash_c4 + 20.0 z_c4_c5 + [ kDash_c4 * o_4 - k_c4 * o_4 ] <= 10.0
  FreightSV_c4_dN:  pi_dN - pi_c4 - kDash_c4 + 20.0 z_c4_dN + [ kDash_c4 * o_4 - k_c4 * o_4 ] <= 10.0
  FreightSV_c5_c1:  pi_c1 - pi_c5 - kDash_c5 + 20.0 z_c5_c1 + [ kDash_c5 * o_5 - k_c5 * o_5 ] <= 10.0
  FreightSV_c5_c2:  pi_c2 - pi_c5 - kDash_c5 + 20.0 z_c5_c2 + [ kDash_c5 * o_5 - k_c5 * o_5 ] <= 10.0
  FreightSV_c5_c3:  pi_c3 - pi_c5 - kDash_c5 + 20.0 z_c5_c3 + [ kDash_c5 * o_5 - k_c5 * o_5 ] <= 10.0
  FreightSV_c5_c4:  pi_c4 - pi_c5 - kDash_c5 + 20.0 z_c5_c4 + [ kDash_c5 * o_5 - k_c5 * o_5 ] <= 10.0
  FreightSV_c5_dN:  pi_dN - pi_c5 - kDash_c5 + 20.0 z_c5_dN + [ kDash_c5 * o_5 - k_c5 * o_5 ] <= 10.0
  FuelDV_d0_c1:  phi_c1 - phi_d0 + 13.611 x_d0_c1 <= 12.0
  FuelDV_d0_c2:  phi_c2 - phi_d0 + 14.7844 x_d0_c2 <= 12.0
  FuelDV_d0_c3:  phi_c3 - phi_d0 + 12.8797 x_d0_c3 <= 12.0
  FuelDV_d0_c4:  phi_c4 - phi_d0 + 13.299199999999999 x_d0_c4 <= 12.0
  FuelDV_d0_c5:  phi_c5 - phi_d0 + 13.6196 x_d0_c5 <= 12.0
  FuelDV_c1_c2:  phi_c2 - phi_c1 + 14.1408 x_c1_c2 <= 12.0
  FuelDV_c1_c3:  phi_c3 - phi_c1 + 12.7359 x_c1_c3 <= 12.0
  FuelDV_c1_c4:  phi_c4 - phi_c1 + 14.7429 x_c1_c4 <= 12.0
  FuelDV_c1_c5:  phi_c5 - phi_c1 + 13.2872 x_c1_c5 <= 12.0
  FuelDV_c1_dN:  phi_dN - phi_c1 + 13.611 x_c1_dN <= 12.0
  FuelDV_c2_c1:  phi_c1 - phi_c2 + 14.1408 x_c2_c1 <= 12.0
  FuelDV_c2_c3:  phi_c3 - phi_c2 + 14.2639 x_c2_c3 <= 12.0
  FuelDV_c2_c4:  phi_c4 - phi_c2 + 15.0868 x_c2_c4 <= 12.0
  FuelDV_c2_c5:  phi_c5 - phi_c2 + 13.1701 x_c2_c5 <= 12.0
  FuelDV_c2_dN:  phi_dN - phi_c2 + 14.7844 x_c2_dN <= 12.0
  FuelDV_c3_c1:  phi_c1 - phi_c3 + 12.7359 x_c3_c1 <= 12.0
  FuelDV_c3_c2:  phi_c2 - phi_c3 + 14.2639 x_c3_c2 <= 12.0
  FuelDV_c3_c4:  phi_c4 - phi_c3 + 14.0311 x_c3_c4 <= 12.0
  FuelDV_c3_c5:  phi_c5 - phi_c3 + 13.1453 x_c3_c5 <= 12.0
  FuelDV_c3_dN:  phi_dN - phi_c3 + 12.8797 x_c3_dN <= 12.0
  FuelDV_c4_c1:  phi_c1 - phi_c4 + 14.7429 x_c4_c1 <= 12.0
  FuelDV_c4_c2:  phi_c2 - phi_c4 + 15.0868 x_c4_c2 <= 12.0
  FuelDV_c4_c3:  phi_c3 - phi_c4 + 14.0311 x_c4_c3 <= 12.0
  FuelDV_c4_c5:  phi_c5 - phi_c4 + 14.1421 x_c4_c5 <= 12.0
  FuelDV_c4_dN:  phi_dN - phi_c4 + 13.299199999999999 x_c4_dN <= 12.0
  FuelDV_c5_c1:  phi_c1 - phi_c5 + 13.2872 x_c5_c1 <= 12.0
  FuelDV_c5_c2:  phi_c2 - phi_c5 + 13.1701 x_c5_c2 <= 12.0
  FuelDV_c5_c3:  phi_c3 - phi_c5 + 13.1453 x_c5_c3 <= 12.0
  FuelDV_c5_c4:  phi_c4 - phi_c5 + 14.1421 x_c5_c4 <= 12.0
  FuelDV_c5_dN:  phi_dN - phi_c5 + 13.6196 x_c5_dN <= 12.0
  WorkingTimeD_c1:  tauD_c1 + 8.0 p_1 <= 86.98
  WorkingTimeD_c2:  tauD_c2 + 8.0 p_2 <= 85.595
  WorkingTimeD_c3:  tauD_c3 + 8.0 p_3 <= 93.7125
  WorkingTimeD_c4:  tauD_c4 + 8.0 p_4 <= 84.145
  WorkingTimeD_c5:  tauD_c5 + 8.0 p_5 <= 88.9475
Bounds
0 <= kDash_c1 <= 10.0
0 <= kDash_c2 <= 10.0
0 <= kDash_c3 <= 10.0
0 <= kDash_c4 <= 10.0
0 <= kDash_c5 <= 10.0
0 <= kDash_dN <= 10.0
0 <= k_c1 <= 10.0
0 <= k_c2 <= 10.0
0 <= k_c3 <= 10.0
0 <= k_c4 <= 10.0
0 <= k_c5 <= 10.0
0 <= k_dN <= 10.0
0 <= phi_c1 <= 12.0
0 <= phi_c2 <= 12.0
0 <= phi_c3 <= 12.0
0 <= phi_c4 <= 12.0
0 <= phi_c5 <= 12.0
0 <= phi_d0 <= 12.0
0 <= phi_dN <= 12.0
0 <= pi_c1 <= 50.0
0 <= pi_c2 <= 50.0
0 <= pi_c3 <= 50.0
0 <= pi_c4 <= 50.0
0 <= pi_c5 <= 50.0
0 <= pi_dN <= 50.0
0 <= tauD_c1 <= 100.0
0 <= tauD_c2 <= 100.0
0 <= tauD_c3 <= 100.0
0 <= tauD_c4 <= 100.0
0 <= tauD_c5 <= 100.0
0 <= tauD_d0 <= 100.0
0 <= tauD_dN <= 100.0
0 <= tauS_c1 <= 100.0
0 <= tauS_c2 <= 100.0
0 <= tauS_c3 <= 100.0
0 <= tauS_c4 <= 100.0
0 <= tauS_c5 <= 100.0
0 <= tauS_d0 <= 100.0
0 <= tauS_dN <= 100.0
Generals
  kDash_c1
  kDash_c2
  kDash_c3
  kDash_c4
  kDash_c5
  kDash_dN
  k_c1
  k_c2
  k_c3
  k_c4
  k_c5
  k_dN
  phi_c1
  phi_c2
  phi_c3
  phi_c4
  phi_c5
  phi_d0
  phi_dN
  pi_c1
  pi_c2
  pi_c3
  pi_c4
  pi_c5
  pi_dN
  tauD_c1
  tauD_c2
  tauD_c3
  tauD_c4
  tauD_c5
  tauD_d0
  tauD_dN
  tauS_c1
  tauS_c2
  tauS_c3
  tauS_c4
  tauS_c5
  tauS_d0
  tauS_dN
Binary
  o_1
  o_2
  o_3
  o_4
  o_5
  p_1
  p_2
  p_3
  p_4
  p_5
  x_c1_c2
  x_c1_c3
  x_c1_c4
  x_c1_c5
  x_c1_dN
  x_c2_c1
  x_c2_c3
  x_c2_c4
  x_c2_c5
  x_c2_dN
  x_c3_c1
  x_c3_c2
  x_c3_c4
  x_c3_c5
  x_c3_dN
  x_c4_c1
  x_c4_c2
  x_c4_c3
  x_c4_c5
  x_c4_dN
  x_c5_c1
  x_c5_c2
  x_c5_c3
  x_c5_c4
  x_c5_dN
  x_d0_c1
  x_d0_c2
  x_d0_c3
  x_d0_c4
  x_d0_c5
  z_c1_c2
  z_c1_c3
  z_c1_c4
  z_c1_c5
  z_c1_dN
  z_c2_c1
  z_c2_c3
  z_c2_c4
  z_c2_c5
  z_c2_dN
  z_c3_c1
  z_c3_c2
  z_c3_c4
  z_c3_c5
  z_c3_dN
  z_c4_c1
  z_c4_c2
  z_c4_c3
  z_c4_c5
  z_c4_dN
  z_c5_c1
  z_c5_c2
  z_c5_c3
  z_c5_c4
  z_c5_dN
  z_d0_c1
  z_d0_c2
  z_d0_c3
  z_d0_c4
  z_d0_c5
End
