VRPTWMS/instances/mip/freight/5/N5-C_DV10-C_SV50_F12_20_No_1.log

Gurobi 6.0.4 (win64) logging started 06/13/15 23:06:39

Warning: unknown variable 'kDash_dN' in bounds section
Read LP format model from file C:\MT\repository\VRPTWMS\instances\mip\freight\N5-C_DV10-C_SV50_F12_20_No_1.lp
Reading time = 0.01 seconds
(null): 161 rows, 110 columns, 603 nonzeros
Optimize a model with 161 rows, 110 columns and 603 nonzeros
Model has 180 quadratic constraints
WARNING: Only barrier available for SOCP models
Coefficient statistics:
  Matrix range    [1e+00, 1e+02]
  Objective range [1e+01, 1e+03]
  Bounds range    [1e+00, 1e+02]
  RHS range       [1e+00, 1e+02]
Presolve removed 17 rows and 7 columns
Presolve time: 0.02s
Presolved: 619 rows, 353 columns, 2695 nonzeros
Variable types: 225 continuous, 128 integer (94 binary)
Found heuristic solution: objective 5244.9600000
Optimize a model with 619 rows, 353 columns and 2695 nonzeros
Coefficient statistics:
  Matrix range    [1e+00, 1e+02]
  Objective range [1e+01, 1e+03]
  Bounds range    [1e+00, 1e+02]
  RHS range       [1e+00, 1e+02]
Presolve removed 28 rows and 16 columns
Presolved: 591 rows, 339 columns, 2567 nonzeros


Root relaxation: objective 1.218394e+02, 87 iterations, 0.01 seconds

    Nodes    |    Current Node    |     Objective Bounds      |     Work
 Expl Unexpl |  Obj  Depth IntInf | Incumbent    BestBd   Gap | It/Node Time

     0     0  121.83944    0   45 5244.96000  121.83944  97.7%     -    0s
     0     0  139.67500    0   38 5244.96000  139.67500  97.3%     -    0s
H    0     0                    4218.7300000  139.67500  96.7%     -    0s
     0     0  142.58200    0   49 4218.73000  142.58200  96.6%     -    0s
H    0     0                    3207.1200000  142.58200  95.6%     -    0s
     0     0  144.16824    0   57 3207.12000  144.16824  95.5%     -    0s
     0     0  144.17667    0   51 3207.12000  144.17667  95.5%     -    0s
     0     0  144.17667    0   48 3207.12000  144.17667  95.5%     -    0s
     0     0  144.17667    0   45 3207.12000  144.17667  95.5%     -    0s
     0     0  144.17667    0   46 3207.12000  144.17667  95.5%     -    0s
     0     0  144.17667    0   31 3207.12000  144.17667  95.5%     -    0s
     0     2  144.17667    0   31 3207.12000  144.17667  95.5%     -    0s
* 1497   397              16    3203.8300000 1053.55238  67.1%  30.0    1s
* 1570   414              18    3201.0100000 1147.78647  64.1%  29.1    1s
* 4992   729              27    3195.8200000 2155.37347  32.6%  14.8    3s

Explored 7076 nodes (221509 simplex iterations) in 4.54 seconds
Thread count was 2 (of 4 available processors)

Optimal solution found (tolerance 1.00e-04)
Best objective 3.195820000000e+03, best bound 3.195820000000e+03, gap 0.0%
k_c1	10.0
k_c2	6.999999999999998
k_c3	10.0
k_c4	3.0
k_c5	6.0
k_dN	-0.0
kDash_c1	6.0
kDash_c2	-0.0
kDash_c3	6.0
kDash_c4	-0.0
kDash_c5	2.0
kDash_dN	-0.0
o_1	-0.0
o_2	-0.0
o_3	-0.0
o_4	0.0
o_5	-0.0
p_1	0.0
p_2	0.0
p_3	1.0
p_4	0.0
p_5	1.0
phi_c1	9.99999999999998
phi_c2	3.0
phi_c3	11.0
phi_c4	2.0
phi_c5	7.999999999999984
phi_d0	12.0
phi_dN	-0.0
pi_c1	-0.0
pi_c2	2.0
pi_c3	12.0
pi_c4	2.0
pi_c5	8.0
pi_dN	-0.0
tauD_c1	18.999999999999886
tauD_c2	65.0
tauD_c3	4.0
tauD_c4	30.0
tauD_c5	31.0
tauD_d0	-0.0
tauD_dN	100.0
tauS_c1	-0.0
tauS_c2	81.0
tauS_c3	7.0
tauS_c4	1.0
tauS_c5	20.0
tauS_d0	-0.0
tauS_dN	51.0
x_c1_c5	1.0
x_c2_dN	1.0
x_c3_c1	1.0
x_c4_dN	1.0
x_c5_c2	1.0
x_d0_c3	1.0
x_d0_c4	1.0
z_c3_c5	1.0
z_c5_dN	1.0
z_d0_c3	1.0
